nNurses = 186;
nHours = 27;
minHours = 10;
maxHours = 17;
maxConsec = 16;
maxPresence = 20;
demand = [30, 26, 23, 26, 27, 24, 22, 27, 27, 31, 34, 29, 26, 28, 27, 30, 33, 38, 34, 38, 42, 46, 49, 49, 46, 50, 49];
